77 9 70 50 96 90 3 42 1 15 24 41 38 99 47 52 62 69 92 91 13 39 84 22 82 60 5 68 11 54 97 53 2 32 29 23 18 45 28 88 67 37 79 6 26 66 89 85 4 63 0 81 25 76 64 16 58 80 61 30 93 48 86 87 73 35 44 46 57 95 49 33 14 59 17 94 10 36 78 31 43 72 34 8 20 51 7 74 27 75 71 98 56 19 83 40 65 55 12 21 

